<number of tasks>
58

<cycle time>
68

<task times>
1 10
2 53
3 41
4 36
5 35
6 17
7 34
8 23
9 14
10 52
11 33
12 34
13 12
14 52
15 12
16 33
17 44
18 7
19 15
20 13
21 29
22 37
23 43
24 23
25 24
26 9
27 16
28 12
29 26
30 22
31 51
32 47
33 34
34 23
35 12
36 52
37 12
38 33
39 44
40 7
41 15
42 13
43 29
44 37
45 43
46 23
47 24
48 9
49 16
50 12
51 26
52 12
53 52
54 12
55 33
56 44
57 7
58 15

<precedence relations>
1,9
2,25
3,21
3,22
4,10
5,36
6,23
6,24
7,43
8,44
9,11
11,13
11,14
11,15
12,17
13,17
14,17
15,17
16,18
17,20
18,19
19,23
20,21
20,25
21,26
21,44
22,27
23,31
24,31
25,38
26,29
27,30
28,32
28,33
29,31
30,34
31,36
32,45
33,35
34,36
35,43
36,37
36,38
37,39
37,40
37,41
38,52
39,43
40,43
41,42
42,43
43,45
44,45
45,46
45,48
45,49
46,47
46,50
47,51
48,55
49,58
50,58
51,52
52,53
53,54
54,55
54,56
55,57
56,57
57,58

<setup times forward>
1,2:6
1,3:2
1,4:2
1,5:2
1,6:3
1,8:5
1,9:4
1,10:2
1,12:1
1,16:7
1,18:1
1,19:2
1,22:5
1,23:4
1,24:1
1,27:8
1,28:2
1,32:6
1,35:8
2,1:6
2,3:8
2,4:4
2,5:4
2,6:9
2,7:6
2,8:11
2,9:2
2,10:8
2,11:12
2,12:7
2,13:4
2,14:1
2,15:13
2,16:13
2,18:7
2,19:4
2,20:1
2,21:2
2,22:11
2,23:2
2,24:7
2,25:8
2,26:12
2,27:14
2,28:4
2,29:13
2,30:6
2,31:2
2,33:6
2,34:6
2,35:14
2,36:4
2,37:12
2,39:8
2,40:11
2,41:12
2,42:14
2,43:5
2,44:7
2,45:8
2,46:3
2,47:10
2,48:11
2,49:8
2,50:2
2,51:5
3,1:2
3,2:8
3,4:4
3,5:4
3,6:1
3,7:2
3,8:3
3,9:6
3,11:4
3,12:1
3,13:4
3,14:7
3,15:5
3,16:5
3,17:8
3,18:1
3,19:4
3,20:7
3,21:6
3,22:3
3,23:6
3,24:1
3,28:4
3,32:8
3,33:2
3,35:6
4,1:2
4,2:4
4,3:4
4,6:5
4,7:2
4,8:7
4,9:2
4,10:4
4,11:8
4,12:3
4,14:3
4,15:9
4,16:9
4,17:4
4,18:3
4,20:3
4,21:2
4,22:7
4,23:2
4,24:3
4,25:4
4,26:8
4,27:10
4,29:9
4,30:2
4,31:2
4,32:4
4,33:2
4,34:2
4,35:10
4,37:8
4,38:4
4,39:4
4,40:7
4,41:8
4,42:10
4,43:1
4,44:3
4,45:4
4,46:1
4,47:6
4,48:7
4,49:4
4,50:2
4,51:1
4,52:8
4,53:1
4,54:8
4,55:1
4,56:3
4,57:4
4,58:10
5,1:2
5,2:4
5,3:4
5,6:5
5,7:2
5,8:7
5,9:2
5,10:4
5,11:8
5,12:3
5,14:3
5,15:9
5,16:9
5,17:4
5,18:3
5,20:3
5,21:2
5,22:7
5,23:2
5,24:3
5,25:4
5,26:8
5,27:10
5,29:9
5,30:2
5,31:2
5,32:4
5,33:2
5,34:2
5,35:10
5,44:3
6,1:3
6,2:9
6,3:1
6,4:5
6,5:5
6,7:3
6,8:2
6,9:7
6,10:1
6,11:3
6,12:2
6,13:5
6,14:8
6,15:4
6,16:4
6,17:9
6,18:2
6,19:5
6,20:8
6,21:7
6,22:2
6,23:7
6,24:2
6,25:1
6,26:3
6,27:5
6,28:5
6,29:4
6,30:3
6,32:9
6,33:3
6,34:3
6,35:5
6,44:2
7,2:6
7,3:2
7,4:2
7,5:2
7,6:3
7,8:5
7,9:4
7,10:2
7,11:6
7,12:1
7,13:2
7,14:5
7,15:7
7,16:7
7,17:6
7,18:1
7,19:2
7,20:5
7,21:4
7,22:5
7,23:4
7,24:1
7,25:2
7,26:6
7,27:8
7,28:2
7,29:7
7,31:4
7,32:6
7,35:8
7,36:2
7,37:6
7,38:6
7,39:2
7,40:5
7,41:6
7,42:8
7,43:1
7,44:1
8,1:5
8,2:11
8,3:3
8,4:7
8,5:7
8,6:2
8,7:5
8,9:9
8,10:3
8,11:1
8,12:4
8,13:7
8,14:10
8,15:2
8,16:2
8,17:11
8,18:4
8,19:7
8,20:10
8,21:9
8,23:9
8,24:4
8,25:3
8,26:1
8,27:3
8,28:7
8,29:2
8,30:5
8,31:9
8,32:11
8,33:5
8,34:5
8,35:3
8,36:7
8,37:1
8,38:11
8,39:3
8,41:1
8,42:3
8,43:6
8,44:4
9,2:2
9,3:6
9,4:2
9,5:2
9,6:7
9,7:4
9,8:9
9,10:6
9,11:10
9,12:5
9,16:11
9,18:5
9,19:2
9,22:9
9,24:5
9,27:12
9,28:2
9,30:4
9,32:2
9,33:4
9,34:4
9,35:12
10,1:2
10,2:8
10,5:4
10,6:1
10,7:2
10,8:3
10,9:6
10,11:4
10,12:1
10,13:4
10,14:7
10,15:5
10,16:5
10,17:8
10,18:1
10,19:4
10,20:7
10,21:6
10,22:3
10,23:6
10,24:1
10,26:4
10,27:6
10,28:4
10,29:5
10,30:2
10,31:6
10,32:8
10,33:2
10,34:2
10,35:6
10,36:4
10,37:4
10,38:8
10,40:3
10,41:4
10,42:6
10,43:3
10,44:1
10,46:5
10,47:2
10,48:3
10,50:6
10,51:3
10,52:4
10,53:3
10,54:4
10,55:5
10,56:7
10,58:6
11,2:12
11,3:4
11,4:8
11,5:8
11,6:3
11,7:6
11,8:1
11,10:4
11,12:5
11,13:8
11,14:11
11,15:1
11,16:1
11,18:5
11,19:8
11,22:1
11,23:10
11,24:5
11,27:2
11,28:8
11,30:6
11,32:12
11,33:6
11,34:6
11,35:2
12,1:1
12,2:7
12,3:1
12,4:3
12,5:3
12,6:2
12,7:1
12,8:4
12,9:5
12,10:1
12,11:5
12,13:3
12,14:6
12,15:6
12,16:6
12,17:7
12,19:3
12,22:4
12,23:5
12,27:7
12,28:3
12,30:1
12,32:7
12,33:1
12,34:1
12,35:7
13,2:4
13,3:4
13,6:5
13,7:2
13,8:7
13,10:4
13,12:3
13,14:3
13,15:9
13,16:9
13,17:4
13,18:3
13,22:7
13,23:2
13,24:3
13,27:10
13,30:2
13,32:4
13,33:2
13,34:2
13,35:10
14,2:1
14,3:7
14,4:3
14,5:3
14,6:8
14,7:5
14,8:10
14,10:7
14,12:6
14,13:3
14,15:12
14,16:12
14,17:1
14,18:6
14,19:3
14,22:10
14,23:1
14,24:6
14,27:13
14,28:3
14,30:5
14,32:1
14,33:5
14,34:5
14,35:13
15,2:13
15,3:5
15,4:9
15,5:9
15,6:4
15,7:7
15,8:2
15,10:5
15,12:6
15,13:9
15,14:12
15,17:13
15,18:6
15,19:9
15,22:2
15,23:11
15,24:6
15,27:1
15,28:9
15,30:7
15,32:13
15,33:7
15,34:7
15,35:1
16,1:7
16,2:13
16,3:5
16,4:9
16,5:9
16,6:4
16,7:7
16,8:2
16,9:11
16,10:5
16,11:1
16,12:6
16,13:9
16,14:12
16,17:13
16,18:6
16,20:12
16,21:11
16,22:2
16,24:6
16,25:5
16,26:1
16,27:1
16,28:9
16,30:7
16,32:13
16,33:7
16,34:7
16,35:1
16,44:6
17,3:8
17,4:4
17,5:4
17,6:9
17,7:6
17,8:11
17,10:8
17,16:13
17,18:7
17,19:4
17,20:1
17,22:11
17,23:2
17,24:7
17,27:14
17,28:4
17,30:6
17,33:6
17,34:6
17,35:14
18,1:1
18,2:7
18,3:1
18,4:3
18,5:3
18,6:2
18,7:1
18,8:4
18,9:5
18,10:1
18,11:5
18,13:3
18,14:6
18,15:6
18,17:7
18,19:3
18,20:6
18,21:5
18,22:4
18,25:1
18,26:5
18,27:7
18,28:3
18,29:6
18,30:1
18,32:7
18,33:1
18,34:1
18,35:7
19,1:2
19,2:4
19,3:4
19,6:5
19,7:2
19,8:7
19,9:2
19,10:4
19,11:8
19,12:3
19,14:3
19,15:9
19,17:4
19,20:3
19,21:2
19,22:7
19,23:2
19,24:3
19,25:4
19,26:8
19,27:10
19,29:9
19,30:2
19,32:4
19,33:2
19,34:2
19,35:10
19,44:3
20,2:1
20,3:7
20,4:3
20,5:3
20,6:8
20,7:5
20,8:10
20,10:7
20,16:12
20,18:6
20,19:3
20,21:1
20,22:10
20,23:1
20,24:6
20,25:7
20,27:13
20,28:3
20,30:5
20,32:1
20,33:5
20,34:5
20,35:13
21,2:2
21,4:2
21,5:2
21,6:7
21,7:4
21,8:9
21,10:6
21,16:11
21,18:5
21,19:2
21,22:9
21,24:5
21,25:6
21,26:10
21,27:12
21,28:2
21,30:4
21,32:2
21,33:4
21,34:4
21,35:12
21,44:5
22,1:5
22,2:11
22,4:7
22,5:7
22,6:2
22,7:5
22,9:9
22,10:3
22,11:1
22,12:4
22,13:7
22,14:10
22,15:2
22,16:2
22,17:11
22,18:4
22,19:7
22,20:10
22,21:9
22,23:9
22,24:4
22,25:3
22,26:1
22,27:3
22,28:7
22,29:2
22,31:9
22,32:11
22,33:5
22,35:3
22,44:4
23,1:4
23,2:2
23,3:6
23,4:2
23,5:2
23,7:4
23,8:9
23,10:6
23,11:10
23,12:5
23,13:2
23,14:1
23,15:11
23,17:2
23,20:1
23,22:9
23,24:5
23,25:6
23,26:10
23,27:12
23,28:2
23,29:11
23,30:4
23,32:2
23,33:4
23,34:4
23,35:12
23,44:5
24,1:1
24,2:7
24,3:1
24,4:3
24,5:3
24,7:1
24,8:4
24,9:5
24,10:1
24,11:5
24,13:3
24,14:6
24,15:6
24,16:6
24,17:7
24,19:3
24,20:6
24,21:5
24,22:4
24,23:5
24,25:1
24,26:5
24,27:7
24,28:3
24,29:6
24,30:1
24,31:5
24,32:7
24,33:1
24,34:1
24,35:7
25,4:4
25,5:4
25,6:1
25,7:2
25,8:3
25,16:5
25,18:1
25,19:4
25,21:6
25,22:3
25,23:6
25,24:1
25,26:4
25,27:6
25,28:4
25,29:5
25,30:2
25,31:6
25,32:8
25,33:2
25,34:2
25,35:6
25,36:4
25,37:4
25,38:8
25,40:3
25,41:4
25,42:6
25,43:3
25,44:1
25,46:5
25,47:2
25,48:3
25,50:6
25,51:3
26,2:12
26,4:8
26,5:8
26,6:3
26,7:6
26,8:1
26,10:4
26,16:1
26,18:5
26,19:8
26,22:1
26,23:10
26,24:5
26,25:4
26,27:2
26,28:8
26,29:1
26,30:6
26,32:12
26,33:6
26,34:6
26,35:2
26,44:5
27,1:8
27,2:14
27,4:10
27,5:10
27,6:5
27,7:8
27,8:3
27,9:12
27,10:6
27,11:2
27,12:7
27,13:10
27,14:13
27,15:1
27,16:1
27,17:14
27,18:7
27,19:10
27,20:13
27,21:12
27,23:12
27,24:7
27,25:6
27,26:2
27,28:10
27,29:1
27,30:8
27,31:12
27,32:14
27,33:8
27,44:7
28,1:2
28,2:4
28,3:4
28,6:5
28,7:2
28,8:7
28,9:2
28,10:4
28,11:8
28,12:3
28,14:3
28,15:9
28,16:9
28,17:4
28,18:3
28,20:3
28,21:2
28,22:7
28,23:2
28,24:3
28,25:4
28,26:8
28,27:10
28,29:9
28,30:2
28,31:2
28,32:4
28,33:2
28,34:2
28,37:8
28,38:4
28,39:4
28,40:7
28,41:8
28,42:10
28,44:3
29,2:13
29,4:9
29,5:9
29,6:4
29,7:7
29,8:2
29,10:5
29,18:6
29,19:9
29,22:2
29,23:11
29,24:6
29,25:5
29,27:1
29,28:9
29,30:7
29,31:11
29,32:13
29,33:7
29,34:7
29,35:1
29,44:6
30,2:6
30,4:2
30,5:2
30,6:3
30,8:5
30,9:4
30,10:2
30,11:6
30,12:1
30,13:2
30,14:5
30,15:7
30,16:7
30,17:6
30,18:1
30,19:2
30,20:5
30,21:4
30,23:4
30,24:1
30,25:2
30,26:6
30,28:2
30,29:7
30,31:4
30,32:6
30,35:8
30,44:1
31,2:2
31,4:2
31,5:2
31,7:4
31,8:9
31,10:6
31,22:9
31,25:6
31,27:12
31,28:2
31,30:4
31,32:2
31,33:4
31,34:4
31,35:12
31,36:2
31,44:5
32,1:6
32,3:8
32,4:4
32,5:4
32,6:9
32,7:6
32,8:11
32,9:2
32,10:8
32,11:12
32,12:7
32,13:4
32,14:1
32,15:13
32,16:13
32,18:7
32,19:4
32,20:1
32,21:2
32,22:11
32,23:2
32,24:7
32,25:8
32,26:12
32,27:14
32,29:13
32,30:6
32,31:2
32,33:6
32,34:6
32,35:14
32,36:4
32,37:12
32,39:8
32,40:11
32,41:12
32,42:14
32,43:5
32,44:7
32,45:8
33,2:6
33,3:2
33,4:2
33,5:2
33,6:3
33,8:5
33,9:4
33,10:2
33,11:6
33,12:1
33,13:2
33,14:5
33,15:7
33,16:7
33,17:6
33,18:1
33,19:2
33,20:5
33,21:4
33,22:5
33,23:4
33,24:1
33,25:2
33,26:6
33,27:8
33,29:7
33,31:4
33,32:6
33,35:8
33,36:2
33,37:6
33,38:6
33,39:2
33,40:5
33,41:6
33,42:8
33,44:1
34,2:6
34,4:2
34,5:2
34,6:3
34,8:5
34,9:4
34,10:2
34,11:6
34,12:1
34,13:2
34,14:5
34,15:7
34,16:7
34,17:6
34,18:1
34,19:2
34,20:5
34,21:4
34,23:4
34,24:1
34,25:2
34,26:6
34,28:2
34,29:7
34,31:4
34,32:6
34,35:8
34,36:2
34,44:1
35,1:8
35,2:14
35,3:6
35,4:10
35,5:10
35,6:5
35,7:8
35,8:3
35,9:12
35,10:6
35,11:2
35,12:7
35,13:10
35,14:13
35,15:1
35,16:1
35,17:14
35,18:7
35,19:10
35,20:13
35,21:12
35,22:3
35,23:12
35,24:7
35,25:6
35,26:2
35,29:1
35,30:8
35,31:12
35,32:14
35,34:8
35,36:10
35,37:2
35,38:14
35,39:6
35,40:3
35,41:2
35,43:9
35,44:7
36,2:4
36,7:2
36,8:7
36,10:4
36,25:4
36,32:4
36,33:2
36,35:10
36,37:8
36,38:4
36,44:3
37,2:12
37,4:8
37,7:6
37,8:1
37,10:4
37,25:4
37,28:8
37,32:12
37,33:6
37,35:2
37,38:12
37,39:4
37,40:1
37,44:5
38,4:4
38,7:6
38,8:11
38,10:8
38,28:4
38,33:6
38,35:14
38,37:12
38,39:8
38,40:11
38,41:12
38,42:14
38,43:5
38,44:7
38,45:8
38,46:3
38,47:10
38,48:11
38,49:8
38,50:2
38,51:5
38,52:12
39,2:8
39,4:4
39,7:2
39,8:3
39,28:4
39,32:8
39,33:2
39,35:6
39,38:8
39,40:3
39,41:4
39,42:6
39,43:3
39,44:1
40,2:11
40,4:7
40,7:5
40,10:3
40,25:3
40,28:7
40,32:11
40,33:5
40,35:3
40,38:11
40,39:3
40,41:1
40,42:3
40,43:6
40,44:4
41,2:12
41,4:8
41,7:6
41,8:1
41,10:4
41,25:4
41,28:8
41,32:12
41,33:6
41,35:2
41,38:12
41,39:4
41,40:1
41,42:2
41,44:5
42,2:14
42,4:10
42,7:8
42,8:3
42,10:6
42,25:6
42,28:10
42,32:14
42,33:8
42,38:14
42,39:6
42,40:3
42,43:9
42,44:7
43,2:5
43,4:1
43,8:6
43,10:3
43,25:3
43,32:5
43,38:5
43,44:2
43,45:3
44,2:7
44,4:3
44,5:3
44,6:2
44,7:1
44,10:1
44,16:6
44,19:3
44,22:4
44,23:5
44,25:1
44,26:5
44,27:7
44,28:3
44,29:6
44,30:1
44,31:5
44,32:7
44,33:1
44,34:1
44,35:7
44,36:3
44,37:5
44,38:7
44,39:1
44,40:4
44,41:5
44,42:7
44,43:2
44,45:1
45,2:8
45,4:4
45,38:8
45,46:5
45,48:3
46,2:3
46,4:1
46,10:5
46,25:5
46,38:3
46,47:7
46,48:8
46,49:5
46,50:1
47,2:10
47,4:6
47,10:2
47,25:2
47,38:10
47,48:1
47,49:2
47,50:8
47,51:5
48,2:11
48,4:7
48,10:3
48,25:3
48,38:11
48,46:8
48,47:1
48,49:3
48,50:9
48,51:6
48,52:1
48,53:6
48,54:1
48,55:8
48,56:10
49,2:8
49,4:4
49,38:8
49,46:5
49,47:2
49,48:3
49,50:6
49,51:3
49,52:4
49,53:3
49,54:4
49,55:5
49,56:7
49,58:6
50,2:2
50,4:2
50,10:6
50,25:6
50,38:2
50,47:8
50,48:9
50,49:6
50,51:3
50,52:10
50,53:3
50,54:10
50,55:1
50,56:1
50,57:6
50,58:12
51,2:5
51,4:1
51,10:3
51,25:3
51,38:5
51,48:6
51,49:3
51,50:3
51,52:7
52,4:8
52,10:4
52,48:1
52,49:4
52,50:10
52,53:7
53,4:1
53,10:3
53,48:6
53,49:3
53,50:3
53,54:7
54,4:8
54,10:4
54,48:1
54,49:4
54,50:10
54,55:9
54,56:11
55,4:1
55,10:5
55,49:5
55,50:1
55,56:2
55,57:5
56,4:3
56,10:7
56,48:10
56,49:7
56,50:1
56,55:2
56,57:7
57,4:4
57,50:6
57,58:6
58,4:10
58,10:6

<setup times backward>
1,1:15
1,2:9
1,3:17
1,4:13
1,5:13
1,6:18
1,7:15
1,8:20
1,10:17
1,12:16
1,16:22
1,18:16
1,19:13
1,22:20
1,23:11
1,24:16
1,27:23
1,28:13
1,30:15
1,32:9
1,33:15
1,34:15
1,35:23
2,1:21
2,2:15
2,3:23
2,4:19
2,5:19
2,6:24
2,7:21
2,8:26
2,9:17
2,10:23
2,11:27
2,12:22
2,13:19
2,14:16
2,15:28
2,16:28
2,17:15
2,18:22
2,19:19
2,20:16
2,21:17
2,22:26
2,23:17
2,24:22
2,26:27
2,27:29
2,28:19
2,29:28
2,30:21
2,31:17
2,32:15
2,33:21
2,34:21
2,35:29
2,36:19
2,37:27
2,39:23
2,40:26
2,41:27
2,42:29
2,43:20
2,44:22
2,45:23
2,46:18
2,47:25
2,48:26
2,49:23
2,50:17
2,51:20
3,1:13
3,2:7
3,3:15
3,4:11
3,5:11
3,6:16
3,7:13
3,8:18
3,9:9
3,10:15
3,11:19
3,12:14
3,13:11
3,14:8
3,15:20
3,16:20
3,17:7
3,18:14
3,19:11
3,20:8
3,23:9
3,24:14
3,25:15
3,28:11
3,32:7
3,33:13
3,35:21
4,1:17
4,2:11
4,3:19
4,4:15
4,5:15
4,6:20
4,7:17
4,8:22
4,9:13
4,11:23
4,12:18
4,13:15
4,14:12
4,15:24
4,16:24
4,17:11
4,18:18
4,19:15
4,20:12
4,21:13
4,22:22
4,23:13
4,24:18
4,25:19
4,26:23
4,27:25
4,28:15
4,29:24
4,30:17
4,31:13
4,32:11
4,33:17
4,34:17
4,35:25
4,36:15
4,37:23
4,38:11
4,39:19
4,40:22
4,41:23
4,42:25
4,43:16
4,44:18
4,45:19
4,46:14
4,47:21
4,48:22
4,49:19
4,50:13
4,51:16
4,52:23
4,53:16
4,54:23
4,55:14
4,56:12
4,57:19
4,58:25
5,1:17
5,2:11
5,3:19
5,4:15
5,5:15
5,6:20
5,7:17
5,8:22
5,9:13
5,10:19
5,11:23
5,12:18
5,13:15
5,14:12
5,15:24
5,16:24
5,17:11
5,18:18
5,19:15
5,20:12
5,21:13
5,22:22
5,23:13
5,24:18
5,25:19
5,26:23
5,27:25
5,28:15
5,29:24
5,30:17
5,31:13
5,32:11
5,33:17
5,34:17
5,35:25
5,44:18
6,1:12
6,2:6
6,3:14
6,4:10
6,5:10
6,6:15
6,7:12
6,8:17
6,9:8
6,10:14
6,11:18
6,12:13
6,13:10
6,14:7
6,15:19
6,16:19
6,17:6
6,18:13
6,19:10
6,20:7
6,21:8
6,22:17
6,25:14
6,26:18
6,27:20
6,28:10
6,29:19
6,30:12
6,32:6
6,33:12
6,34:12
6,35:20
6,44:13
7,1:15
7,2:9
7,3:17
7,4:13
7,5:13
7,6:18
7,7:15
7,8:20
7,9:11
7,10:17
7,11:21
7,12:16
7,13:13
7,14:10
7,15:22
7,16:22
7,17:9
7,18:16
7,19:13
7,20:10
7,21:11
7,22:20
7,23:11
7,24:16
7,25:17
7,26:21
7,27:23
7,28:13
7,29:22
7,30:15
7,31:11
7,32:9
7,33:15
7,34:15
7,35:23
7,36:13
7,37:21
7,38:9
7,39:17
7,40:20
7,41:21
7,42:23
7,44:16
8,1:10
8,2:4
8,3:12
8,4:8
8,5:8
8,6:13
8,7:10
8,8:15
8,9:6
8,10:12
8,11:16
8,12:11
8,13:8
8,14:5
8,15:17
8,16:17
8,17:4
8,18:11
8,19:8
8,20:5
8,21:6
8,22:15
8,23:6
8,24:11
8,25:12
8,26:16
8,27:18
8,28:8
8,29:17
8,30:10
8,31:6
8,32:4
8,33:10
8,34:10
8,35:18
8,36:8
8,37:16
8,38:4
8,39:12
8,40:15
8,41:16
8,42:18
8,43:9
9,1:19
9,2:13
9,3:21
9,4:17
9,5:17
9,6:22
9,7:19
9,8:24
9,9:15
9,10:21
9,12:20
9,16:26
9,18:20
9,19:17
9,22:24
9,23:15
9,24:20
9,27:27
9,28:17
9,30:19
9,32:13
9,33:19
9,34:19
9,35:27
10,1:13
10,2:7
10,3:15
10,4:11
10,5:11
10,6:16
10,7:13
10,8:18
10,9:9
10,10:15
10,11:19
10,12:14
10,13:11
10,14:8
10,15:20
10,16:20
10,17:7
10,18:14
10,19:11
10,20:8
10,21:9
10,22:18
10,23:9
10,24:14
10,25:15
10,26:19
10,27:21
10,28:11
10,29:20
10,30:13
10,31:9
10,32:7
10,33:13
10,34:13
10,35:21
10,36:11
10,37:19
10,38:7
10,39:15
10,40:18
10,41:19
10,42:21
10,43:12
10,44:14
10,45:15
10,46:10
10,47:17
10,48:18
10,49:15
10,50:9
10,51:12
10,52:19
10,53:12
10,54:19
10,55:10
10,56:8
10,57:15
10,58:21
11,1:9
11,2:3
11,3:11
11,4:7
11,5:7
11,6:12
11,7:9
11,8:14
11,9:5
11,10:11
11,11:15
11,12:10
11,16:16
11,18:10
11,19:7
11,22:14
11,23:5
11,24:10
11,27:17
11,28:7
11,30:9
11,32:3
11,33:9
11,34:9
11,35:17
12,1:14
12,2:8
12,3:16
12,4:12
12,5:12
12,6:17
12,7:14
12,8:19
12,9:10
12,10:16
12,11:20
12,12:15
12,13:12
12,14:9
12,15:21
12,16:21
12,18:15
12,19:12
12,22:19
12,23:10
12,24:15
12,27:22
12,28:12
12,30:14
12,32:8
12,33:14
12,34:14
12,35:22
13,1:17
13,2:11
13,3:19
13,4:15
13,5:15
13,6:20
13,7:17
13,8:22
13,9:13
13,10:19
13,11:23
13,12:18
13,13:15
13,14:12
13,15:24
13,16:24
13,18:18
13,19:15
13,22:22
13,23:13
13,24:18
13,27:25
13,28:15
13,30:17
13,32:11
13,33:17
13,34:17
13,35:25
14,1:20
14,2:14
14,3:22
14,4:18
14,5:18
14,6:23
14,7:20
14,8:25
14,9:16
14,10:22
14,11:26
14,12:21
14,13:18
14,14:15
14,15:27
14,16:27
14,18:21
14,19:18
14,22:25
14,23:16
14,24:21
14,27:28
14,28:18
14,30:20
14,32:14
14,33:20
14,34:20
14,35:28
15,1:8
15,2:2
15,3:10
15,4:6
15,5:6
15,6:11
15,7:8
15,8:13
15,9:4
15,10:10
15,11:14
15,12:9
15,13:6
15,14:3
15,15:15
15,16:15
15,18:9
15,19:6
15,22:13
15,23:4
15,24:9
15,27:16
15,28:6
15,30:8
15,32:2
15,33:8
15,34:8
15,35:16
16,1:8
16,2:2
16,3:10
16,4:6
16,5:6
16,6:11
16,7:8
16,8:13
16,9:4
16,10:10
16,11:14
16,12:9
16,13:6
16,14:3
16,15:15
16,16:15
16,17:2
16,20:3
16,21:4
16,22:13
16,24:9
16,25:10
16,26:14
16,27:16
16,28:6
16,29:15
16,30:8
16,32:2
16,33:8
16,34:8
16,35:16
16,44:9
17,1:21
17,2:15
17,3:23
17,4:19
17,5:19
17,6:24
17,7:21
17,8:26
17,9:17
17,10:23
17,11:27
17,12:22
17,13:19
17,14:16
17,15:28
17,16:28
17,17:15
17,18:22
17,19:19
17,22:26
17,23:17
17,24:22
17,27:29
17,28:19
17,30:21
17,32:15
17,33:21
17,34:21
17,35:29
18,1:14
18,2:8
18,3:16
18,4:12
18,5:12
18,6:17
18,7:14
18,8:19
18,9:10
18,10:16
18,11:20
18,12:15
18,13:12
18,14:9
18,15:21
18,16:21
18,17:8
18,18:15
18,20:9
18,21:10
18,22:19
18,24:15
18,25:16
18,26:20
18,27:22
18,28:12
18,29:21
18,30:14
18,32:8
18,33:14
18,34:14
18,35:22
18,44:15
19,1:17
19,2:11
19,3:19
19,4:15
19,5:15
19,6:20
19,7:17
19,8:22
19,9:13
19,10:19
19,11:23
19,12:18
19,13:15
19,14:12
19,15:24
19,16:24
19,17:11
19,18:18
19,19:15
19,20:12
19,21:13
19,22:22
19,24:18
19,25:19
19,26:23
19,27:25
19,28:15
19,29:24
19,30:17
19,32:11
19,33:17
19,34:17
19,35:25
19,44:18
20,1:20
20,2:14
20,3:22
20,4:18
20,5:18
20,6:23
20,7:20
20,8:25
20,9:16
20,10:22
20,11:26
20,12:21
20,13:18
20,14:15
20,15:27
20,16:27
20,17:14
20,18:21
20,19:18
20,20:15
20,22:25
20,23:16
20,24:21
20,27:28
20,28:18
20,30:20
20,32:14
20,33:20
20,34:20
20,35:28
21,1:19
21,2:13
21,3:21
21,4:17
21,5:17
21,6:22
21,7:19
21,8:24
21,9:15
21,10:21
21,11:25
21,12:20
21,13:17
21,14:14
21,15:26
21,16:26
21,17:13
21,18:20
21,19:17
21,20:14
21,21:15
21,22:24
21,23:15
21,24:20
21,25:21
21,27:27
21,28:17
21,30:19
21,32:13
21,33:19
21,34:19
21,35:27
22,1:10
22,2:4
22,3:12
22,4:8
22,5:8
22,6:13
22,7:10
22,8:15
22,9:6
22,10:12
22,11:16
22,12:11
22,13:8
22,14:5
22,15:17
22,16:17
22,17:4
22,18:11
22,19:8
22,20:5
22,21:6
22,22:15
22,23:6
22,24:11
22,25:12
22,26:16
22,28:8
22,29:17
22,31:6
22,32:4
22,33:10
22,35:18
22,44:11
23,1:19
23,2:13
23,3:21
23,4:17
23,5:17
23,6:22
23,7:19
23,8:24
23,9:15
23,10:21
23,11:25
23,12:20
23,13:17
23,14:14
23,15:26
23,16:26
23,17:13
23,18:20
23,19:17
23,20:14
23,21:15
23,22:24
23,23:15
23,24:20
23,25:21
23,26:25
23,27:27
23,28:17
23,29:26
23,30:19
23,32:13
23,33:19
23,34:19
23,35:27
23,44:20
24,1:14
24,2:8
24,3:16
24,4:12
24,5:12
24,6:17
24,7:14
24,8:19
24,9:10
24,10:16
24,11:20
24,12:15
24,13:12
24,14:9
24,15:21
24,16:21
24,17:8
24,18:15
24,19:12
24,20:9
24,21:10
24,22:19
24,23:10
24,24:15
24,25:16
24,26:20
24,27:22
24,28:12
24,29:21
24,30:14
24,32:8
24,33:14
24,34:14
24,35:22
24,44:15
25,1:13
25,2:7
25,3:15
25,4:11
25,5:11
25,6:16
25,7:13
25,8:18
25,9:9
25,10:15
25,11:19
25,12:14
25,13:11
25,14:8
25,15:20
25,16:20
25,17:7
25,18:14
25,19:11
25,20:8
25,21:9
25,22:18
25,23:9
25,24:14
25,25:15
25,26:19
25,27:21
25,28:11
25,29:20
25,30:13
25,31:9
25,32:7
25,33:13
25,34:13
25,35:21
25,36:11
25,37:19
25,39:15
25,40:18
25,41:19
25,42:21
25,43:12
25,44:14
25,45:15
25,46:10
25,47:17
25,48:18
25,49:15
25,50:9
25,51:12
26,1:9
26,2:3
26,3:11
26,4:7
26,5:7
26,6:12
26,7:9
26,8:14
26,9:5
26,10:11
26,11:15
26,12:10
26,13:7
26,14:4
26,15:16
26,16:16
26,17:3
26,18:10
26,19:7
26,20:4
26,21:5
26,22:14
26,23:5
26,24:10
26,25:11
26,26:15
26,27:17
26,28:7
26,30:9
26,32:3
26,33:9
26,34:9
26,35:17
26,44:10
27,1:7
27,2:1
27,3:9
27,4:5
27,5:5
27,6:10
27,7:7
27,8:12
27,9:3
27,10:9
27,11:13
27,12:8
27,13:5
27,14:2
27,15:14
27,16:14
27,17:1
27,18:8
27,19:5
27,20:2
27,21:3
27,22:12
27,23:3
27,24:8
27,25:9
27,26:13
27,27:15
27,28:5
27,29:14
27,31:3
27,32:1
27,33:7
27,35:15
27,44:8
28,1:17
28,2:11
28,3:19
28,4:15
28,5:15
28,6:20
28,7:17
28,8:22
28,9:13
28,10:19
28,11:23
28,12:18
28,13:15
28,14:12
28,15:24
28,16:24
28,17:11
28,18:18
28,19:15
28,20:12
28,21:13
28,22:22
28,23:13
28,24:18
28,25:19
28,26:23
28,27:25
28,28:15
28,29:24
28,30:17
28,31:13
28,34:17
28,36:15
28,37:23
28,38:11
28,39:19
28,40:22
28,41:23
28,42:25
28,44:18
29,1:8
29,2:2
29,3:10
29,4:6
29,5:6
29,6:11
29,7:8
29,8:13
29,9:4
29,10:10
29,11:14
29,12:9
29,13:6
29,14:3
29,15:15
29,16:15
29,17:2
29,18:9
29,19:6
29,20:3
29,21:4
29,22:13
29,23:4
29,24:9
29,25:10
29,26:14
29,27:16
29,28:6
29,29:15
29,30:8
29,32:2
29,33:8
29,34:8
29,35:16
29,44:9
30,1:15
30,2:9
30,3:17
30,4:13
30,5:13
30,6:18
30,7:15
30,8:20
30,9:11
30,10:17
30,11:21
30,12:16
30,13:13
30,14:10
30,15:22
30,16:22
30,17:9
30,18:16
30,19:13
30,20:10
30,21:11
30,22:20
30,23:11
30,24:16
30,25:17
30,26:21
30,27:23
30,28:13
30,29:22
30,30:15
30,31:11
30,32:9
30,33:15
30,35:23
30,44:16
31,1:19
31,2:13
31,3:21
31,4:17
31,5:17
31,6:22
31,7:19
31,8:24
31,9:15
31,10:21
31,11:25
31,12:20
31,13:17
31,14:14
31,15:26
31,16:26
31,17:13
31,18:20
31,19:17
31,20:14
31,21:15
31,22:24
31,23:15
31,24:20
31,25:21
31,26:25
31,27:27
31,28:17
31,29:26
31,30:19
31,31:15
31,32:13
31,33:19
31,34:19
31,35:27
31,44:20
32,1:21
32,2:15
32,3:23
32,4:19
32,5:19
32,6:24
32,7:21
32,8:26
32,9:17
32,10:23
32,11:27
32,12:22
32,13:19
32,14:16
32,15:28
32,16:28
32,17:15
32,18:22
32,19:19
32,20:16
32,21:17
32,22:26
32,23:17
32,24:22
32,25:23
32,26:27
32,27:29
32,28:19
32,29:28
32,30:21
32,31:17
32,32:15
32,33:21
32,34:21
32,35:29
32,36:19
32,37:27
32,38:15
32,39:23
32,40:26
32,41:27
32,42:29
32,43:20
32,44:22
33,1:15
33,2:9
33,3:17
33,4:13
33,5:13
33,6:18
33,7:15
33,8:20
33,9:11
33,10:17
33,11:21
33,12:16
33,13:13
33,14:10
33,15:22
33,16:22
33,17:9
33,18:16
33,19:13
33,20:10
33,21:11
33,22:20
33,23:11
33,24:16
33,25:17
33,26:21
33,27:23
33,28:13
33,29:22
33,30:15
33,31:11
33,32:9
33,33:15
33,34:15
33,36:13
33,37:21
33,38:9
33,39:17
33,40:20
33,41:21
33,42:23
33,44:16
34,1:15
34,2:9
34,3:17
34,4:13
34,5:13
34,6:18
34,7:15
34,8:20
34,9:11
34,10:17
34,11:21
34,12:16
34,13:13
34,14:10
34,15:22
34,16:22
34,17:9
34,18:16
34,19:13
34,20:10
34,21:11
34,22:20
34,23:11
34,24:16
34,25:17
34,26:21
34,27:23
34,28:13
34,29:22
34,30:15
34,31:11
34,32:9
34,33:15
34,34:15
34,35:23
34,44:16
35,1:7
35,2:1
35,3:9
35,4:5
35,5:5
35,6:10
35,7:7
35,8:12
35,9:3
35,10:9
35,11:13
35,12:8
35,13:5
35,14:2
35,15:14
35,16:14
35,17:1
35,18:8
35,19:5
35,20:2
35,21:3
35,22:12
35,23:3
35,24:8
35,25:9
35,26:13
35,27:15
35,28:5
35,29:14
35,30:7
35,31:3
35,32:1
35,33:7
35,34:7
35,35:15
35,36:5
35,37:13
35,38:1
35,39:9
35,40:12
35,41:13
35,42:15
35,44:8
36,1:17
36,2:11
36,3:19
36,4:15
36,5:15
36,6:20
36,7:17
36,8:22
36,9:13
36,10:19
36,11:23
36,12:18
36,13:15
36,14:12
36,15:24
36,16:24
36,17:11
36,18:18
36,19:15
36,20:12
36,21:13
36,22:22
36,23:13
36,24:18
36,25:19
36,26:23
36,27:25
36,28:15
36,29:24
36,30:17
36,31:13
36,32:11
36,33:17
36,34:17
36,35:25
36,36:15
36,44:18
37,1:9
37,2:3
37,3:11
37,4:7
37,5:7
37,6:12
37,7:9
37,8:14
37,9:5
37,10:11
37,11:15
37,12:10
37,13:7
37,14:4
37,15:16
37,16:16
37,17:3
37,18:10
37,19:7
37,20:4
37,21:5
37,22:14
37,23:5
37,24:10
37,25:11
37,26:15
37,27:17
37,28:7
37,29:16
37,30:9
37,31:5
37,32:3
37,33:9
37,34:9
37,35:17
37,36:7
37,37:15
37,38:3
37,44:10
38,1:21
38,2:15
38,3:23
38,4:19
38,5:19
38,6:24
38,7:21
38,8:26
38,9:17
38,10:23
38,11:27
38,12:22
38,13:19
38,14:16
38,15:28
38,16:28
38,17:15
38,18:22
38,19:19
38,20:16
38,21:17
38,22:26
38,23:17
38,24:22
38,25:23
38,26:27
38,27:29
38,28:19
38,29:28
38,30:21
38,31:17
38,32:15
38,33:21
38,34:21
38,35:29
38,36:19
38,37:27
38,38:15
38,39:23
38,40:26
38,41:27
38,42:29
38,43:20
38,44:22
38,45:23
38,46:18
38,47:25
38,48:26
38,49:23
38,50:17
38,51:20
39,1:13
39,2:7
39,3:15
39,4:11
39,5:11
39,6:16
39,7:13
39,8:18
39,9:9
39,10:15
39,11:19
39,12:14
39,13:11
39,14:8
39,15:20
39,16:20
39,17:7
39,18:14
39,19:11
39,20:8
39,21:9
39,22:18
39,23:9
39,24:14
39,25:15
39,26:19
39,27:21
39,28:11
39,29:20
39,30:13
39,31:9
39,32:7
39,33:13
39,34:13
39,35:21
39,36:11
39,37:19
39,38:7
39,39:15
39,40:18
39,41:19
39,42:21
39,44:14
40,1:10
40,2:4
40,3:12
40,4:8
40,5:8
40,6:13
40,7:10
40,8:15
40,9:6
40,10:12
40,11:16
40,12:11
40,13:8
40,14:5
40,15:17
40,16:17
40,17:4
40,18:11
40,19:8
40,20:5
40,21:6
40,22:15
40,23:6
40,24:11
40,25:12
40,26:16
40,27:18
40,28:8
40,29:17
40,30:10
40,31:6
40,32:4
40,33:10
40,34:10
40,35:18
40,36:8
40,37:16
40,38:4
40,39:12
40,40:15
40,41:16
40,42:18
40,44:11
41,1:9
41,2:3
41,3:11
41,4:7
41,5:7
41,6:12
41,7:9
41,8:14
41,9:5
41,10:11
41,11:15
41,12:10
41,13:7
41,14:4
41,15:16
41,16:16
41,17:3
41,18:10
41,19:7
41,20:4
41,21:5
41,22:14
41,23:5
41,24:10
41,25:11
41,26:15
41,27:17
41,28:7
41,29:16
41,30:9
41,31:5
41,32:3
41,33:9
41,34:9
41,35:17
41,36:7
41,37:15
41,38:3
41,39:11
41,40:14
41,41:15
41,44:10
42,1:7
42,2:1
42,3:9
42,4:5
42,5:5
42,6:10
42,7:7
42,8:12
42,9:3
42,10:9
42,11:13
42,12:8
42,13:5
42,14:2
42,15:14
42,16:14
42,17:1
42,18:8
42,19:5
42,20:2
42,21:3
42,22:12
42,23:3
42,24:8
42,25:9
42,26:13
42,27:15
42,28:5
42,29:14
42,30:7
42,31:3
42,32:1
42,33:7
42,34:7
42,35:15
42,36:5
42,37:13
42,38:1
42,39:9
42,40:12
42,41:13
42,42:15
42,44:8
43,1:16
43,2:10
43,3:18
43,4:14
43,5:14
43,6:19
43,7:16
43,8:21
43,9:12
43,10:18
43,11:22
43,12:17
43,13:14
43,14:11
43,15:23
43,16:23
43,17:10
43,18:17
43,19:14
43,20:11
43,21:12
43,22:21
43,23:12
43,24:17
43,25:18
43,26:22
43,27:24
43,28:14
43,29:23
43,30:16
43,31:12
43,32:10
43,33:16
43,34:16
43,35:24
43,36:14
43,37:22
43,38:10
43,39:18
43,40:21
43,41:22
43,42:24
43,43:15
43,44:17
44,1:14
44,2:8
44,3:16
44,4:12
44,5:12
44,6:17
44,7:14
44,8:19
44,9:10
44,10:16
44,11:20
44,12:15
44,13:12
44,14:9
44,15:21
44,16:21
44,17:8
44,18:15
44,19:12
44,20:9
44,21:10
44,22:19
44,23:10
44,24:15
44,25:16
44,26:20
44,27:22
44,28:12
44,29:21
44,30:14
44,31:10
44,32:8
44,33:14
44,34:14
44,35:22
44,36:12
44,37:20
44,38:8
44,39:16
44,40:19
44,41:20
44,42:22
44,43:13
44,44:15
45,1:13
45,2:7
45,3:15
45,4:11
45,5:11
45,6:16
45,7:13
45,8:18
45,9:9
45,10:15
45,11:19
45,12:14
45,13:11
45,14:8
45,15:20
45,16:20
45,17:7
45,18:14
45,19:11
45,20:8
45,21:9
45,22:18
45,23:9
45,24:14
45,25:15
45,26:19
45,27:21
45,28:11
45,29:20
45,30:13
45,31:9
45,32:7
45,33:13
45,34:13
45,35:21
45,36:11
45,37:19
45,38:7
45,39:15
45,40:18
45,41:19
45,42:21
45,43:12
45,44:14
45,45:15
46,1:18
46,2:12
46,3:20
46,4:16
46,5:16
46,6:21
46,7:18
46,8:23
46,9:14
46,10:20
46,11:24
46,12:19
46,13:16
46,14:13
46,15:25
46,16:25
46,17:12
46,18:19
46,19:16
46,20:13
46,21:14
46,22:23
46,23:14
46,24:19
46,25:20
46,26:24
46,27:26
46,28:16
46,29:25
46,30:18
46,31:14
46,32:12
46,33:18
46,34:18
46,35:26
46,36:16
46,37:24
46,38:12
46,39:20
46,40:23
46,41:24
46,42:26
46,43:17
46,44:19
46,45:20
46,46:15
46,48:23
46,49:20
47,1:11
47,2:5
47,3:13
47,4:9
47,5:9
47,6:14
47,7:11
47,8:16
47,9:7
47,10:13
47,11:17
47,12:12
47,13:9
47,14:6
47,15:18
47,16:18
47,17:5
47,18:12
47,19:9
47,20:6
47,21:7
47,22:16
47,23:7
47,24:12
47,25:13
47,26:17
47,27:19
47,28:9
47,29:18
47,30:11
47,31:7
47,32:5
47,33:11
47,34:11
47,35:19
47,36:9
47,37:17
47,38:5
47,39:13
47,40:16
47,41:17
47,42:19
47,43:10
47,44:12
47,45:13
47,46:8
47,47:15
47,48:16
47,49:13
47,50:7
48,1:10
48,2:4
48,3:12
48,4:8
48,5:8
48,6:13
48,7:10
48,8:15
48,9:6
48,10:12
48,11:16
48,12:11
48,13:8
48,14:5
48,15:17
48,16:17
48,17:4
48,18:11
48,19:8
48,20:5
48,21:6
48,22:15
48,23:6
48,24:11
48,25:12
48,26:16
48,27:18
48,28:8
48,29:17
48,30:10
48,31:6
48,32:4
48,33:10
48,34:10
48,35:18
48,36:8
48,37:16
48,38:4
48,39:12
48,40:15
48,41:16
48,42:18
48,43:9
48,44:11
48,45:12
48,46:7
48,47:14
48,48:15
48,49:12
48,50:6
48,51:9
48,52:16
48,53:9
48,54:16
48,56:5
49,1:13
49,2:7
49,3:15
49,4:11
49,5:11
49,6:16
49,7:13
49,8:18
49,9:9
49,10:15
49,11:19
49,12:14
49,13:11
49,14:8
49,15:20
49,16:20
49,17:7
49,18:14
49,19:11
49,20:8
49,21:9
49,22:18
49,23:9
49,24:14
49,25:15
49,26:19
49,27:21
49,28:11
49,29:20
49,30:13
49,31:9
49,32:7
49,33:13
49,34:13
49,35:21
49,36:11
49,37:19
49,38:7
49,39:15
49,40:18
49,41:19
49,42:21
49,43:12
49,44:14
49,45:15
49,46:10
49,47:17
49,48:18
49,49:15
49,50:9
49,51:12
49,52:19
49,53:12
49,54:19
49,55:10
49,56:8
49,57:15
50,1:19
50,2:13
50,3:21
50,4:17
50,5:17
50,6:22
50,7:19
50,8:24
50,9:15
50,10:21
50,11:25
50,12:20
50,13:17
50,14:14
50,15:26
50,16:26
50,17:13
50,18:20
50,19:17
50,20:14
50,21:15
50,22:24
50,23:15
50,24:20
50,25:21
50,26:25
50,27:27
50,28:17
50,29:26
50,30:19
50,31:15
50,32:13
50,33:19
50,34:19
50,35:27
50,36:17
50,37:25
50,38:13
50,39:21
50,40:24
50,41:25
50,42:27
50,43:18
50,44:20
50,45:21
50,46:16
50,47:23
50,48:24
50,49:21
50,50:15
50,51:18
50,52:25
50,53:18
50,54:25
50,55:16
50,56:14
50,57:21
51,1:16
51,2:10
51,3:18
51,4:14
51,5:14
51,6:19
51,7:16
51,8:21
51,9:12
51,10:18
51,11:22
51,12:17
51,13:14
51,14:11
51,15:23
51,16:23
51,17:10
51,18:17
51,19:14
51,20:11
51,21:12
51,22:21
51,23:12
51,24:17
51,25:18
51,26:22
51,27:24
51,28:14
51,29:23
51,30:16
51,31:12
51,32:10
51,33:16
51,34:16
51,35:24
51,36:14
51,37:22
51,38:10
51,39:18
51,40:21
51,41:22
51,42:24
51,43:15
51,44:17
51,45:18
51,46:13
51,47:20
51,48:21
51,49:18
51,50:12
51,51:15
52,1:9
52,2:3
52,3:11
52,4:7
52,5:7
52,6:12
52,7:9
52,8:14
52,9:5
52,10:11
52,11:15
52,12:10
52,13:7
52,14:4
52,15:16
52,16:16
52,17:3
52,18:10
52,19:7
52,20:4
52,21:5
52,22:14
52,23:5
52,24:10
52,25:11
52,26:15
52,27:17
52,28:7
52,29:16
52,30:9
52,31:5
52,32:3
52,33:9
52,34:9
52,35:17
52,36:7
52,37:15
52,38:3
52,39:11
52,40:14
52,41:15
52,42:17
52,43:8
52,44:10
52,45:11
52,46:6
52,47:13
52,48:14
52,49:11
52,50:5
52,51:8
52,52:15
53,1:16
53,2:10
53,3:18
53,4:14
53,5:14
53,6:19
53,7:16
53,8:21
53,9:12
53,10:18
53,11:22
53,12:17
53,13:14
53,14:11
53,15:23
53,16:23
53,17:10
53,18:17
53,19:14
53,20:11
53,21:12
53,22:21
53,23:12
53,24:17
53,25:18
53,26:22
53,27:24
53,28:14
53,29:23
53,30:16
53,31:12
53,32:10
53,33:16
53,34:16
53,35:24
53,36:14
53,37:22
53,38:10
53,39:18
53,40:21
53,41:22
53,42:24
53,43:15
53,44:17
53,45:18
53,46:13
53,47:20
53,48:21
53,49:18
53,50:12
53,51:15
53,52:22
53,53:15
54,1:9
54,2:3
54,3:11
54,4:7
54,5:7
54,6:12
54,7:9
54,8:14
54,9:5
54,10:11
54,11:15
54,12:10
54,13:7
54,14:4
54,15:16
54,16:16
54,17:3
54,18:10
54,19:7
54,20:4
54,21:5
54,22:14
54,23:5
54,24:10
54,25:11
54,26:15
54,27:17
54,28:7
54,29:16
54,30:9
54,31:5
54,32:3
54,33:9
54,34:9
54,35:17
54,36:7
54,37:15
54,38:3
54,39:11
54,40:14
54,41:15
54,42:17
54,43:8
54,44:10
54,45:11
54,46:6
54,47:13
54,48:14
54,49:11
54,50:5
54,51:8
54,52:15
54,53:8
54,54:15
55,1:18
55,2:12
55,3:20
55,4:16
55,5:16
55,6:21
55,7:18
55,8:23
55,9:14
55,10:20
55,11:24
55,12:19
55,13:16
55,14:13
55,15:25
55,16:25
55,17:12
55,18:19
55,19:16
55,20:13
55,21:14
55,22:23
55,23:14
55,24:19
55,25:20
55,26:24
55,27:26
55,28:16
55,29:25
55,30:18
55,31:14
55,32:12
55,33:18
55,34:18
55,35:26
55,36:16
55,37:24
55,38:12
55,39:20
55,40:23
55,41:24
55,42:26
55,43:17
55,44:19
55,45:20
55,46:15
55,47:22
55,48:23
55,49:20
55,50:14
55,51:17
55,52:24
55,53:17
55,54:24
55,55:15
55,56:13
56,1:20
56,2:14
56,3:22
56,4:18
56,5:18
56,6:23
56,7:20
56,8:25
56,9:16
56,10:22
56,11:26
56,12:21
56,13:18
56,14:15
56,15:27
56,16:27
56,17:14
56,18:21
56,19:18
56,20:15
56,21:16
56,22:25
56,23:16
56,24:21
56,25:22
56,26:26
56,27:28
56,28:18
56,29:27
56,30:20
56,31:16
56,32:14
56,33:20
56,34:20
56,35:28
56,36:18
56,37:26
56,38:14
56,39:22
56,40:25
56,41:26
56,42:28
56,43:19
56,44:21
56,45:22
56,46:17
56,47:24
56,48:25
56,49:22
56,50:16
56,51:19
56,52:26
56,53:19
56,54:26
56,55:17
56,56:15
57,1:13
57,2:7
57,3:15
57,4:11
57,5:11
57,6:16
57,7:13
57,8:18
57,9:9
57,10:15
57,11:19
57,12:14
57,13:11
57,14:8
57,15:20
57,16:20
57,17:7
57,18:14
57,19:11
57,20:8
57,21:9
57,22:18
57,23:9
57,24:14
57,25:15
57,26:19
57,27:21
57,28:11
57,29:20
57,30:13
57,31:9
57,32:7
57,33:13
57,34:13
57,35:21
57,36:11
57,37:19
57,38:7
57,39:15
57,40:18
57,41:19
57,42:21
57,43:12
57,44:14
57,45:15
57,46:10
57,47:17
57,48:18
57,49:15
57,50:9
57,51:12
57,52:19
57,53:12
57,54:19
57,55:10
57,56:8
57,57:15
58,1:7
58,2:1
58,3:9
58,4:5
58,5:5
58,6:10
58,7:7
58,8:12
58,9:3
58,10:9
58,11:13
58,12:8
58,13:5
58,14:2
58,15:14
58,16:14
58,17:1
58,18:8
58,19:5
58,20:2
58,21:3
58,22:12
58,23:3
58,24:8
58,25:9
58,26:13
58,27:15
58,28:5
58,29:14
58,30:7
58,31:3
58,32:1
58,33:7
58,34:7
58,35:15
58,36:5
58,37:13
58,38:1
58,39:9
58,40:12
58,41:13
58,42:15
58,43:6
58,44:8
58,45:9
58,46:4
58,47:11
58,48:12
58,49:9
58,50:3
58,51:6
58,52:13
58,53:6
58,54:13
58,55:4
58,56:2
58,57:9
58,58:15

<end>

<optimal SALBP-1 value>
24


<rand seed>
467321153

